column=9;
row=9;
Board=[|0,6,5,0,4,6,6,0,0|0,0,0,0,0,0,0,0,0|0,0,0,0,4,5,0,0,1|0,0,0,0,0,0,0,0,0|0,0,1,0,4,0,5,0,0|1,0,0,0,0,0,0,0,3|0,0,0,0,0,0,0,0,0|0,0,0,0,0,0,0,0,0|0,0,0,0,0,0,0,0,0|];
Lighthouse=[|-1,-1,-1,-1,-1,-1,-1,-1,-1|-1,-1,-1,-1,-1,-1,-1,-1,-1|-1,-1,-1,-1,-1,-1,-1,-1,-1|-1,-1,-1,-1,-1,-1,-1,-1,-1|-1,-1,-1,-1,-1,-1,-1,-1,-1|-1,-1,-1,-1,-1,-1,-1,-1,-1|-1,-1,-1,-1,-1,3,-1,-1,-1|-1,1,-1,0,-1,-1,-1,-1,3|4,-1,3,-1,3,-1,-1,1,3|];
